(set-logic HORN)
(declare-fun P3 (Int Int) Bool)
(declare-fun P4 (Int Int) Bool)
(declare-fun P0 (Int) Bool)
(declare-fun P1 (Int) Bool)
(declare-fun P2 (Int Int) Bool)
(declare-fun P5 (Int Int Int) Bool)
(assert (forall ((x1 Int) (x0 Int)) (=> (and (P4 x0 x1) (<= x1 0)) (P1 x1))))
(assert (forall ((x0 Int) (x1 Int) (x2 Int)) (=> (and (P4 x0 x1) (P3 x1 x2) (<= x1 0)) (P5 x0 x1 x2))))
(assert (forall ((x2 Int) (x1 Int) (x0 Int)) (=> (and (P4 x0 x1) (P1 x2) (>= x1 1)) (P1 x2))))
(assert (forall ((x2 Int) (x3 Int) (x1 Int) (x0 Int)) (=> (and (P4 x0 x1) (P1 x2) (P3 x2 x3) (>= x1 1)) (P3 x2 x3))))
(assert (forall ((x1 Int) (x3 Int) (x2 Int) (x0 Int)) (=> (and (P4 x1 x2) (P1 x3) (>= x2 1) (= x2 (+ 1 x0))) (P4 x1 x3))))
(assert (forall ((x3 Int) (x4 Int) (x1 Int) (x0 Int) (x2 Int)) (=> (and (P4 x2 x1) (P1 x3) (P5 x2 x3 x4) (>= x1 1) (= x1 (+ 1 x0))) (P3 x3 x4))))
(assert (forall ((x0 Int) (x1 Int) (x3 Int) (x2 Int)) (=> (and (P4 x2 x3) (>= x3 1) (= x3 (+ 1 x1))) (P4 x0 x1))))
(assert (forall ((x0 Int) (x1 Int) (x4 Int) (x3 Int) (x2 Int)) (=> (and (P4 x0 x1) (P5 x2 x3 x4) (>= x1 1) (= x1 (+ 1 x3))) (P5 x0 x1 x4))))
(assert (forall ((x1 Int) (x0 Int)) (=> (and (P0 x1) (= x0 (+ 1 x1))) (P2 x1 x0))))
(assert (forall ((x0 Int)) (=> (P1 x0) (P0 x0))))
(assert (forall ((x0 Int) (x1 Int)) (=> (and (P1 x0) (P2 x0 x1)) (P3 x0 x1))))
(assert (forall ((x0 Int) (x1 Int)) (=> (= x1 2) (P4 x0 x1))))
(assert (forall ((x1 Int) (x0 Int)) (=> (and (P5 x0 2 x1) (>= x1 1)) false)))
(check-sat)
